%chk=F1O2/F1O2_M.chk
%nproc=16
%mem=16GB
#P MP2/aug-cc-pVTZ SP nosymm scf=tight

F1O2 parent molecule | 8 atoms 3 monomers

0 1
O       1.63624200    0.06044800    0.10369600
H       1.10856100   -0.75511900    0.05301200
H       2.37703200   -0.08166400   -0.49839900
O      -0.85290300    1.23581500   -0.12714800
H      -1.14461800    1.75668800    0.63218600
H       0.12270200    1.19189000   -0.05456600
F      -0.86722900   -1.33084300    0.00700300
H      -1.04222400   -0.39098500   -0.03624300


