%chk=F1O2/HB1_F1O2_frag_M1M3.chk
%nproc=16
%mem=16GB
#P MP2/aug-cc-pVTZ SP nosymm scf=tight

HB1 overlap frag | removed D=O1-H3-H2 A=F7-H8

0 1
O      -0.85290300    1.23581500   -0.12714800
H      -1.14461800    1.75668800    0.63218600
H       0.12270200    1.19189000   -0.05456600


