%chk=F1O2/HB2_F1O2_frag_M2M1.chk
%nproc=16
%mem=16GB
#P MP2/aug-cc-pVTZ SP nosymm scf=tight

HB2 overlap frag | removed D=O4-H6-H5 A=O1-H3-H2

0 1
F      -0.86722900   -1.33084300    0.00700300
H      -1.04222400   -0.39098500   -0.03624300


