%chk=F1O2/HB3_F1O2_dimer_M3M2.chk
%nproc=16
%mem=16GB
#P MP2/aug-cc-pVTZ SP nosymm scf=tight

HB3 dimer M3M2 | D=F7-H8 + A=O4-H6-H5

0 1
F      -0.86722900   -1.33084300    0.00700300
H      -1.04222400   -0.39098500   -0.03624300
O      -0.85290300    1.23581500   -0.12714800
H      -1.14461800    1.75668800    0.63218600
H       0.12270200    1.19189000   -0.05456600


